50 633
0 1
0 4
0 6
0 8
0 10
0 12
0 13
0 17
0 18
0 21
0 24
0 25
0 27
0 28
0 29
0 31
0 32
0 34
0 35
0 36
0 38
0 41
0 42
0 43
0 45
0 46
1 2
1 4
1 5
1 8
1 9
1 10
1 11
1 12
1 16
1 20
1 21
1 25
1 26
1 28
1 29
1 30
1 31
1 33
1 35
1 36
1 40
1 41
1 42
1 43
1 47
2 4
2 5
2 8
2 9
2 11
2 14
2 16
2 17
2 18
2 19
2 21
2 22
2 26
2 28
2 30
2 31
2 32
2 33
2 34
2 35
2 36
2 37
2 39
2 40
2 45
2 46
2 48
3 4
3 5
3 6
3 8
3 11
3 12
3 13
3 14
3 15
3 17
3 20
3 21
3 22
3 23
3 26
3 27
3 30
3 35
3 36
3 37
3 41
3 44
3 45
3 46
3 47
3 48
3 49
4 7
4 9
4 10
4 11
4 12
4 16
4 22
4 23
4 27
4 29
4 34
4 36
4 39
4 40
4 47
5 6
5 8
5 10
5 12
5 14
5 16
5 20
5 24
5 25
5 28
5 30
5 31
5 32
5 33
5 35
5 36
5 38
5 43
5 44
5 45
5 49
6 7
6 8
6 9
6 10
6 11
6 12
6 16
6 18
6 20
6 21
6 22
6 23
6 24
6 25
6 26
6 28
6 29
6 30
6 38
6 39
6 40
6 41
6 47
7 9
7 10
7 12
7 13
7 14
7 15
7 16
7 17
7 18
7 20
7 21
7 23
7 24
7 25
7 26
7 28
7 30
7 31
7 33
7 34
7 37
7 39
7 41
7 43
7 44
7 45
7 46
7 47
8 10
8 12
8 13
8 14
8 15
8 16
8 18
8 19
8 22
8 23
8 24
8 27
8 30
8 31
8 33
8 34
8 38
8 44
8 46
8 47
8 48
8 49
9 10
9 12
9 13
9 17
9 18
9 19
9 21
9 22
9 26
9 27
9 28
9 31
9 34
9 36
9 37
9 40
9 41
9 42
9 43
9 48
10 11
10 12
10 15
10 16
10 17
10 20
10 21
10 30
10 31
10 33
10 37
10 40
10 43
10 44
10 45
10 47
10 49
11 12
11 13
11 14
11 15
11 17
11 18
11 20
11 22
11 24
11 25
11 27
11 28
11 31
11 32
11 33
11 35
11 36
11 37
11 39
11 41
11 42
11 46
11 48
11 49
12 16
12 17
12 18
12 19
12 21
12 23
12 28
12 30
12 31
12 32
12 34
12 35
12 36
12 37
12 42
12 43
12 45
12 49
13 14
13 16
13 20
13 23
13 24
13 28
13 29
13 31
13 33
13 37
13 41
13 44
13 49
14 20
14 21
14 29
14 31
14 32
14 34
14 36
14 38
14 39
14 40
14 42
14 43
14 44
14 46
14 47
15 16
15 17
15 18
15 19
15 20
15 22
15 24
15 27
15 28
15 29
15 30
15 32
15 36
15 38
15 41
15 42
15 44
15 46
15 47
15 48
15 49
16 17
16 18
16 19
16 26
16 28
16 29
16 31
16 32
16 35
16 36
16 37
16 38
16 39
16 40
16 41
16 44
16 47
16 49
17 18
17 19
17 21
17 22
17 26
17 28
17 29
17 30
17 33
17 34
17 35
17 36
17 41
17 44
17 45
17 46
17 47
18 19
18 22
18 24
18 25
18 26
18 28
18 29
18 30
18 32
18 34
18 35
18 37
18 41
18 43
18 48
18 49
19 23
19 26
19 28
19 32
19 33
19 35
19 36
19 38
19 41
19 43
19 44
19 45
19 47
20 22
20 24
20 25
20 27
20 28
20 29
20 31
20 36
20 37
20 38
20 39
20 41
21 24
21 26
21 28
21 31
21 32
21 34
21 35
21 36
21 37
21 38
21 42
21 44
21 45
21 47
21 48
21 49
22 23
22 24
22 26
22 27
22 31
22 33
22 34
22 35
22 36
22 37
22 42
22 43
22 45
22 46
22 47
22 48
22 49
23 24
23 25
23 26
23 29
23 30
23 31
23 32
23 33
23 34
23 37
23 39
23 43
23 45
23 47
23 49
24 25
24 28
24 30
24 31
24 33
24 34
24 35
24 37
24 38
24 39
24 42
24 43
24 44
24 46
24 48
24 49
25 26
25 27
25 35
25 38
25 39
25 40
25 41
25 42
25 44
25 45
25 46
25 49
26 29
26 30
26 31
26 33
26 37
26 39
26 41
26 45
26 47
26 49
27 28
27 29
27 30
27 31
27 32
27 34
27 35
27 36
27 37
27 38
27 41
27 43
27 44
27 46
27 48
28 29
28 31
28 34
28 36
28 40
28 44
28 47
29 31
29 32
29 33
29 34
29 35
29 40
29 43
29 48
29 49
30 31
30 34
30 39
30 42
30 43
30 44
30 47
31 34
31 35
31 37
31 38
31 39
31 40
31 41
31 42
31 43
31 47
31 48
31 49
32 33
32 34
32 35
32 38
32 40
32 41
32 42
32 43
32 47
32 48
32 49
33 35
33 36
33 40
33 41
33 42
33 43
33 44
33 45
33 46
33 49
34 37
34 38
34 40
34 41
34 43
34 44
34 46
34 49
35 37
35 38
35 41
35 42
35 43
35 44
35 49
36 38
36 39
36 40
36 41
36 42
36 44
36 46
36 48
36 49
37 45
37 46
37 48
38 40
38 43
38 47
38 48
39 41
39 42
39 44
40 41
40 42
40 43
40 46
40 47
40 49
41 43
41 46
41 47
42 43
42 45
42 49
43 44
43 46
43 47
43 48
43 49
44 46
44 48
45 46
45 47
45 49
46 48
47 48
